(set-info :smt-lib-version 2.6)
(set-logic UF)
(set-info :source |Benchmarks from the paper: "Extending Sledgehammer with SMT Solvers" by Jasmin Blanchette, Sascha Bohme, and Lawrence C. Paulson, CADE 2011.  Translated to SMT2 by Andrew Reynolds and Morgan Deters.|)
(set-info :category "industrial")
(set-info :status unsat)
(declare-sort S1 0)
(declare-sort S2 0)
(declare-sort S3 0)
(declare-sort S4 0)
(declare-sort S5 0)
(declare-sort S6 0)
(declare-sort S7 0)
(declare-sort S8 0)
(declare-sort S9 0)
(declare-sort S10 0)
(declare-sort S11 0)
(declare-sort S12 0)
(declare-sort S13 0)
(declare-sort S14 0)
(declare-sort S15 0)
(declare-sort S16 0)
(declare-sort S17 0)
(declare-sort S18 0)
(declare-sort S19 0)
(declare-sort S20 0)
(declare-sort S21 0)
(declare-sort S22 0)
(declare-sort S23 0)
(declare-sort S24 0)
(declare-sort S25 0)
(declare-sort S26 0)
(declare-sort S27 0)
(declare-sort S28 0)
(declare-sort S29 0)
(declare-sort S30 0)
(declare-sort S31 0)
(declare-sort S32 0)
(declare-sort S33 0)
(declare-sort S34 0)
(declare-sort S35 0)
(declare-sort S36 0)
(declare-sort S37 0)
(declare-sort S38 0)
(declare-sort S39 0)
(declare-sort S40 0)
(declare-sort S41 0)
(declare-sort S42 0)
(declare-sort S43 0)
(declare-sort S44 0)
(declare-sort S45 0)
(declare-sort S46 0)
(declare-sort S47 0)
(declare-sort S48 0)
(declare-sort S49 0)
(declare-sort S50 0)
(declare-sort S51 0)
(declare-sort S52 0)
(declare-sort S53 0)
(declare-sort S54 0)
(declare-sort S55 0)
(declare-sort S56 0)
(declare-sort S57 0)
(declare-sort S58 0)
(declare-sort S59 0)
(declare-fun f1 () S1)
(declare-fun f2 () S1)
(declare-fun f3 () S1)
(declare-fun f4 (S2 S2) S1)
(declare-fun f5 (S4 S3) S2)
(declare-fun f6 () S4)
(declare-fun f7 (S5 S2) S2)
(declare-fun f8 (S6 S2) S5)
(declare-fun f9 () S6)
(declare-fun f10 () S2)
(declare-fun f11 () S3)
(declare-fun f12 (S7 S3) S3)
(declare-fun f13 (S8 S9) S7)
(declare-fun f14 () S8)
(declare-fun f15 (S10 S9) S9)
(declare-fun f16 (S11 S3) S10)
(declare-fun f17 () S11)
(declare-fun f18 () S3)
(declare-fun f19 () S9)
(declare-fun f20 () S9)
(declare-fun f21 (S12 S3) S7)
(declare-fun f22 () S12)
(declare-fun f23 () S5)
(declare-fun f24 (S13 S13) S1)
(declare-fun f25 (S14 S14) S1)
(declare-fun f26 (S15 S15) S1)
(declare-fun f27 (S16 S9) S10)
(declare-fun f28 () S16)
(declare-fun f29 (S17 S13) S5)
(declare-fun f30 () S17)
(declare-fun f31 (S18 S13) S13)
(declare-fun f32 (S19 S13) S18)
(declare-fun f33 () S19)
(declare-fun f34 (S21 S14) S14)
(declare-fun f35 (S22 S20) S21)
(declare-fun f36 () S22)
(declare-fun f37 (S23 S20) S20)
(declare-fun f38 (S24 S20) S23)
(declare-fun f39 () S24)
(declare-fun f40 (S25 S14) S21)
(declare-fun f41 () S25)
(declare-fun f42 (S28 S27) S27)
(declare-fun f43 (S29 S26) S28)
(declare-fun f44 () S29)
(declare-fun f45 (S30 S26) S26)
(declare-fun f46 (S31 S26) S30)
(declare-fun f47 () S31)
(declare-fun f48 (S32 S27) S28)
(declare-fun f49 () S32)
(declare-fun f50 (S35 S34) S34)
(declare-fun f51 (S36 S33) S35)
(declare-fun f52 () S36)
(declare-fun f53 (S37 S33) S33)
(declare-fun f54 (S38 S33) S37)
(declare-fun f55 () S38)
(declare-fun f56 (S39 S34) S35)
(declare-fun f57 () S39)
(declare-fun f58 (S40 S34) S18)
(declare-fun f59 () S40)
(declare-fun f60 (S41 S27) S10)
(declare-fun f61 () S41)
(declare-fun f62 (S42 S15) S15)
(declare-fun f63 (S43 S14) S42)
(declare-fun f64 () S43)
(declare-fun f65 (S44 S15) S42)
(declare-fun f66 () S44)
(declare-fun f67 (S45 S2) S18)
(declare-fun f68 () S45)
(declare-fun f69 (S46 S14) S23)
(declare-fun f70 () S46)
(declare-fun f71 (S47 S27) S30)
(declare-fun f72 () S47)
(declare-fun f73 (S48 S34) S37)
(declare-fun f74 () S48)
(declare-fun f75 (S49 S13) S35)
(declare-fun f76 () S49)
(declare-fun f77 (S50 S9) S28)
(declare-fun f78 () S50)
(declare-fun f79 (S51 S15) S21)
(declare-fun f80 () S51)
(declare-fun f81 (S34 S34) S1)
(declare-fun f82 () S9)
(declare-fun f83 () S34)
(declare-fun f84 () S20)
(declare-fun f85 () S26)
(declare-fun f86 () S27)
(declare-fun f87 () S14)
(declare-fun f88 () S13)
(declare-fun f89 () S2)
(declare-fun f90 () S15)
(declare-fun f91 () S3)
(declare-fun f92 () S33)
(declare-fun f93 (S53 S52) S52)
(declare-fun f94 (S54 S20) S53)
(declare-fun f95 () S54)
(declare-fun f96 () S52)
(declare-fun f97 (S56 S55) S55)
(declare-fun f98 (S57 S26) S56)
(declare-fun f99 () S57)
(declare-fun f100 () S55)
(declare-fun f101 (S58 S52) S23)
(declare-fun f102 () S58)
(declare-fun f103 (S59 S55) S30)
(declare-fun f104 () S59)
(assert (not (= f1 f2)))
(assert (not (= f3 f1)))
(assert (forall ((?v0 S2)) (=> (forall ((?v1 S3)) (=> (= (f4 ?v0 (f5 f6 ?v1)) f1) (= (f4 (f7 (f8 f9 f10) (f5 f6 f11)) (f5 f6 (f12 (f13 f14 (f15 (f16 f17 f18) f19)) ?v1))) f1))) (= f3 f1))))
(assert (forall ((?v0 S2) (?v1 S3)) (=> (not (= f19 f20)) (exists ((?v2 S2)) (forall ((?v3 S3)) (=> (= (f4 ?v2 (f5 f6 ?v3)) f1) (= (f4 ?v0 (f5 f6 (f12 (f13 f14 (f15 (f16 f17 ?v1) f19)) ?v3))) f1)))))))
(assert (not (= f19 f20)))
(assert (not (= f19 f20)))
(assert (forall ((?v0 S2) (?v1 S3)) (=> (not (= f19 f20)) (exists ((?v2 S2)) (forall ((?v3 S3)) (=> (= (f4 ?v2 (f5 f6 ?v3)) f1) (= (f4 ?v0 (f5 f6 (f12 (f13 f14 (f15 (f16 f17 ?v1) f19)) ?v3))) f1)))))))
(assert (not (= (f15 (f16 f17 f18) f19) f20)))
(assert (forall ((?v0 S3) (?v1 S3)) (= (f4 (f5 f6 (f12 (f21 f22 ?v0) ?v1)) (f7 (f8 f9 (f5 f6 ?v0)) (f5 f6 ?v1))) f1)))
(assert (forall ((?v0 S2) (?v1 S2)) (= (f4 (f7 f23 (f7 (f8 f9 ?v0) ?v1)) (f7 (f8 f9 (f7 f23 ?v0)) (f7 f23 ?v1))) f1)))
(assert (forall ((?v0 S2) (?v1 S9)) (exists ((?v2 S3)) (forall ((?v3 S3)) (let ((?v_0 (f13 f14 ?v1))) (=> (= (f4 (f5 f6 ?v3) ?v0) f1) (= (f4 (f5 f6 (f12 ?v_0 ?v2)) (f5 f6 (f12 ?v_0 ?v3))) f1)))))))
(assert (forall ((?v0 S2)) (= (f4 ?v0 ?v0) f1)))
(assert (forall ((?v0 S13)) (= (f24 ?v0 ?v0) f1)))
(assert (forall ((?v0 S14)) (= (f25 ?v0 ?v0) f1)))
(assert (forall ((?v0 S15)) (= (f26 ?v0 ?v0) f1)))
(assert (forall ((?v0 S9) (?v1 S9) (?v2 S3)) (= (f12 (f13 f14 (f15 (f27 f28 ?v0) ?v1)) ?v2) (f12 (f21 f22 (f12 (f13 f14 ?v0) ?v2)) (f12 (f13 f14 ?v1) ?v2)))))
(assert (forall ((?v0 S13) (?v1 S13) (?v2 S2)) (= (f7 (f29 f30 (f31 (f32 f33 ?v0) ?v1)) ?v2) (f7 (f8 f9 (f7 (f29 f30 ?v0) ?v2)) (f7 (f29 f30 ?v1) ?v2)))))
(assert (forall ((?v0 S20) (?v1 S20) (?v2 S14)) (= (f34 (f35 f36 (f37 (f38 f39 ?v0) ?v1)) ?v2) (f34 (f40 f41 (f34 (f35 f36 ?v0) ?v2)) (f34 (f35 f36 ?v1) ?v2)))))
(assert (forall ((?v0 S26) (?v1 S26) (?v2 S27)) (= (f42 (f43 f44 (f45 (f46 f47 ?v0) ?v1)) ?v2) (f42 (f48 f49 (f42 (f43 f44 ?v0) ?v2)) (f42 (f43 f44 ?v1) ?v2)))))
(assert (forall ((?v0 S33) (?v1 S33) (?v2 S34)) (= (f50 (f51 f52 (f53 (f54 f55 ?v0) ?v1)) ?v2) (f50 (f56 f57 (f50 (f51 f52 ?v0) ?v2)) (f50 (f51 f52 ?v1) ?v2)))))
(assert (forall ((?v0 S34) (?v1 S34) (?v2 S13)) (= (f31 (f58 f59 (f50 (f56 f57 ?v0) ?v1)) ?v2) (f31 (f32 f33 (f31 (f58 f59 ?v0) ?v2)) (f31 (f58 f59 ?v1) ?v2)))))
(assert (forall ((?v0 S27) (?v1 S27) (?v2 S9)) (= (f15 (f60 f61 (f42 (f48 f49 ?v0) ?v1)) ?v2) (f15 (f27 f28 (f15 (f60 f61 ?v0) ?v2)) (f15 (f60 f61 ?v1) ?v2)))))
(assert (forall ((?v0 S14) (?v1 S14) (?v2 S15)) (= (f62 (f63 f64 (f34 (f40 f41 ?v0) ?v1)) ?v2) (f62 (f65 f66 (f62 (f63 f64 ?v0) ?v2)) (f62 (f63 f64 ?v1) ?v2)))))
(assert (forall ((?v0 S3) (?v1 S9) (?v2 S3) (?v3 S9)) (= (f15 (f27 f28 (f15 (f16 f17 ?v0) ?v1)) (f15 (f16 f17 ?v2) ?v3)) (f15 (f16 f17 (f12 (f21 f22 ?v0) ?v2)) (f15 (f27 f28 ?v1) ?v3)))))
(assert (forall ((?v0 S2) (?v1 S13) (?v2 S2) (?v3 S13)) (= (f31 (f32 f33 (f31 (f67 f68 ?v0) ?v1)) (f31 (f67 f68 ?v2) ?v3)) (f31 (f67 f68 (f7 (f8 f9 ?v0) ?v2)) (f31 (f32 f33 ?v1) ?v3)))))
(assert (forall ((?v0 S14) (?v1 S20) (?v2 S14) (?v3 S20)) (= (f37 (f38 f39 (f37 (f69 f70 ?v0) ?v1)) (f37 (f69 f70 ?v2) ?v3)) (f37 (f69 f70 (f34 (f40 f41 ?v0) ?v2)) (f37 (f38 f39 ?v1) ?v3)))))
(assert (forall ((?v0 S27) (?v1 S26) (?v2 S27) (?v3 S26)) (= (f45 (f46 f47 (f45 (f71 f72 ?v0) ?v1)) (f45 (f71 f72 ?v2) ?v3)) (f45 (f71 f72 (f42 (f48 f49 ?v0) ?v2)) (f45 (f46 f47 ?v1) ?v3)))))
(assert (forall ((?v0 S34) (?v1 S33) (?v2 S34) (?v3 S33)) (= (f53 (f54 f55 (f53 (f73 f74 ?v0) ?v1)) (f53 (f73 f74 ?v2) ?v3)) (f53 (f73 f74 (f50 (f56 f57 ?v0) ?v2)) (f53 (f54 f55 ?v1) ?v3)))))
(assert (forall ((?v0 S13) (?v1 S34) (?v2 S13) (?v3 S34)) (= (f50 (f56 f57 (f50 (f75 f76 ?v0) ?v1)) (f50 (f75 f76 ?v2) ?v3)) (f50 (f75 f76 (f31 (f32 f33 ?v0) ?v2)) (f50 (f56 f57 ?v1) ?v3)))))
(assert (forall ((?v0 S9) (?v1 S27) (?v2 S9) (?v3 S27)) (= (f42 (f48 f49 (f42 (f77 f78 ?v0) ?v1)) (f42 (f77 f78 ?v2) ?v3)) (f42 (f77 f78 (f15 (f27 f28 ?v0) ?v2)) (f42 (f48 f49 ?v1) ?v3)))))
(assert (forall ((?v0 S15) (?v1 S14) (?v2 S15) (?v3 S14)) (= (f34 (f40 f41 (f34 (f79 f80 ?v0) ?v1)) (f34 (f79 f80 ?v2) ?v3)) (f34 (f79 f80 (f62 (f65 f66 ?v0) ?v2)) (f34 (f40 f41 ?v1) ?v3)))))
(assert (forall ((?v0 S2) (?v1 S2) (?v2 S2)) (let ((?v_0 (f8 f9 ?v2))) (=> (= (f4 ?v0 ?v1) f1) (= (f4 (f7 ?v_0 ?v0) (f7 ?v_0 ?v1)) f1)))))
(assert (forall ((?v0 S2) (?v1 S2) (?v2 S2)) (= (= (f4 (f7 (f8 f9 ?v0) ?v1) (f7 (f8 f9 ?v2) ?v1)) f1) (= (f4 ?v0 ?v2) f1))))
(assert (forall ((?v0 S14) (?v1 S14) (?v2 S14)) (= (= (f25 (f34 (f40 f41 ?v0) ?v1) (f34 (f40 f41 ?v2) ?v1)) f1) (= (f25 ?v0 ?v2) f1))))
(assert (forall ((?v0 S34) (?v1 S34) (?v2 S34)) (= (= (f81 (f50 (f56 f57 ?v0) ?v1) (f50 (f56 f57 ?v2) ?v1)) f1) (= (f81 ?v0 ?v2) f1))))
(assert (forall ((?v0 S13) (?v1 S13) (?v2 S13)) (= (= (f24 (f31 (f32 f33 ?v0) ?v1) (f31 (f32 f33 ?v2) ?v1)) f1) (= (f24 ?v0 ?v2) f1))))
(assert (forall ((?v0 S15) (?v1 S15) (?v2 S15)) (= (= (f26 (f62 (f65 f66 ?v0) ?v1) (f62 (f65 f66 ?v2) ?v1)) f1) (= (f26 ?v0 ?v2) f1))))
(assert (forall ((?v0 S2) (?v1 S2) (?v2 S2)) (let ((?v_0 (f8 f9 ?v0))) (= (= (f4 (f7 ?v_0 ?v1) (f7 ?v_0 ?v2)) f1) (= (f4 ?v1 ?v2) f1)))))
(assert (forall ((?v0 S14) (?v1 S14) (?v2 S14)) (let ((?v_0 (f40 f41 ?v0))) (= (= (f25 (f34 ?v_0 ?v1) (f34 ?v_0 ?v2)) f1) (= (f25 ?v1 ?v2) f1)))))
(assert (forall ((?v0 S34) (?v1 S34) (?v2 S34)) (let ((?v_0 (f56 f57 ?v0))) (= (= (f81 (f50 ?v_0 ?v1) (f50 ?v_0 ?v2)) f1) (= (f81 ?v1 ?v2) f1)))))
(assert (forall ((?v0 S13) (?v1 S13) (?v2 S13)) (let ((?v_0 (f32 f33 ?v0))) (= (= (f24 (f31 ?v_0 ?v1) (f31 ?v_0 ?v2)) f1) (= (f24 ?v1 ?v2) f1)))))
(assert (forall ((?v0 S15) (?v1 S15) (?v2 S15)) (let ((?v_0 (f65 f66 ?v0))) (= (= (f26 (f62 ?v_0 ?v1) (f62 ?v_0 ?v2)) f1) (= (f26 ?v1 ?v2) f1)))))
(assert (forall ((?v0 S2) (?v1 S2) (?v2 S2)) (=> (= (f4 ?v0 ?v1) f1) (= (f4 (f7 (f8 f9 ?v0) ?v2) (f7 (f8 f9 ?v1) ?v2)) f1))))
(assert (forall ((?v0 S14) (?v1 S14) (?v2 S14)) (=> (= (f25 ?v0 ?v1) f1) (= (f25 (f34 (f40 f41 ?v0) ?v2) (f34 (f40 f41 ?v1) ?v2)) f1))))
(assert (forall ((?v0 S34) (?v1 S34) (?v2 S34)) (=> (= (f81 ?v0 ?v1) f1) (= (f81 (f50 (f56 f57 ?v0) ?v2) (f50 (f56 f57 ?v1) ?v2)) f1))))
(assert (forall ((?v0 S13) (?v1 S13) (?v2 S13)) (=> (= (f24 ?v0 ?v1) f1) (= (f24 (f31 (f32 f33 ?v0) ?v2) (f31 (f32 f33 ?v1) ?v2)) f1))))
(assert (forall ((?v0 S15) (?v1 S15) (?v2 S15)) (=> (= (f26 ?v0 ?v1) f1) (= (f26 (f62 (f65 f66 ?v0) ?v2) (f62 (f65 f66 ?v1) ?v2)) f1))))
(assert (forall ((?v0 S2) (?v1 S2) (?v2 S2)) (let ((?v_0 (f8 f9 ?v2))) (=> (= (f4 ?v0 ?v1) f1) (= (f4 (f7 ?v_0 ?v0) (f7 ?v_0 ?v1)) f1)))))
(assert (forall ((?v0 S14) (?v1 S14) (?v2 S14)) (let ((?v_0 (f40 f41 ?v2))) (=> (= (f25 ?v0 ?v1) f1) (= (f25 (f34 ?v_0 ?v0) (f34 ?v_0 ?v1)) f1)))))
(assert (forall ((?v0 S34) (?v1 S34) (?v2 S34)) (let ((?v_0 (f56 f57 ?v2))) (=> (= (f81 ?v0 ?v1) f1) (= (f81 (f50 ?v_0 ?v0) (f50 ?v_0 ?v1)) f1)))))
(assert (forall ((?v0 S13) (?v1 S13) (?v2 S13)) (let ((?v_0 (f32 f33 ?v2))) (=> (= (f24 ?v0 ?v1) f1) (= (f24 (f31 ?v_0 ?v0) (f31 ?v_0 ?v1)) f1)))))
(assert (forall ((?v0 S15) (?v1 S15) (?v2 S15)) (let ((?v_0 (f65 f66 ?v2))) (=> (= (f26 ?v0 ?v1) f1) (= (f26 (f62 ?v_0 ?v0) (f62 ?v_0 ?v1)) f1)))))
(assert (forall ((?v0 S2) (?v1 S2) (?v2 S2) (?v3 S2)) (=> (= (f4 ?v0 ?v1) f1) (=> (= (f4 ?v2 ?v3) f1) (= (f4 (f7 (f8 f9 ?v0) ?v2) (f7 (f8 f9 ?v1) ?v3)) f1)))))
(assert (forall ((?v0 S14) (?v1 S14) (?v2 S14) (?v3 S14)) (=> (= (f25 ?v0 ?v1) f1) (=> (= (f25 ?v2 ?v3) f1) (= (f25 (f34 (f40 f41 ?v0) ?v2) (f34 (f40 f41 ?v1) ?v3)) f1)))))
(assert (forall ((?v0 S34) (?v1 S34) (?v2 S34) (?v3 S34)) (=> (= (f81 ?v0 ?v1) f1) (=> (= (f81 ?v2 ?v3) f1) (= (f81 (f50 (f56 f57 ?v0) ?v2) (f50 (f56 f57 ?v1) ?v3)) f1)))))
(assert (forall ((?v0 S13) (?v1 S13) (?v2 S13) (?v3 S13)) (=> (= (f24 ?v0 ?v1) f1) (=> (= (f24 ?v2 ?v3) f1) (= (f24 (f31 (f32 f33 ?v0) ?v2) (f31 (f32 f33 ?v1) ?v3)) f1)))))
(assert (forall ((?v0 S15) (?v1 S15) (?v2 S15) (?v3 S15)) (=> (= (f26 ?v0 ?v1) f1) (=> (= (f26 ?v2 ?v3) f1) (= (f26 (f62 (f65 f66 ?v0) ?v2) (f62 (f65 f66 ?v1) ?v3)) f1)))))
(assert (forall ((?v0 S2) (?v1 S2) (?v2 S2)) (=> (= (f4 (f7 (f8 f9 ?v0) ?v1) (f7 (f8 f9 ?v2) ?v1)) f1) (= (f4 ?v0 ?v2) f1))))
(assert (forall ((?v0 S14) (?v1 S14) (?v2 S14)) (=> (= (f25 (f34 (f40 f41 ?v0) ?v1) (f34 (f40 f41 ?v2) ?v1)) f1) (= (f25 ?v0 ?v2) f1))))
(assert (forall ((?v0 S34) (?v1 S34) (?v2 S34)) (=> (= (f81 (f50 (f56 f57 ?v0) ?v1) (f50 (f56 f57 ?v2) ?v1)) f1) (= (f81 ?v0 ?v2) f1))))
(assert (forall ((?v0 S13) (?v1 S13) (?v2 S13)) (=> (= (f24 (f31 (f32 f33 ?v0) ?v1) (f31 (f32 f33 ?v2) ?v1)) f1) (= (f24 ?v0 ?v2) f1))))
(assert (forall ((?v0 S15) (?v1 S15) (?v2 S15)) (=> (= (f26 (f62 (f65 f66 ?v0) ?v1) (f62 (f65 f66 ?v2) ?v1)) f1) (= (f26 ?v0 ?v2) f1))))
(assert (not (= f82 f20)))
(assert (forall ((?v0 S9)) (= (f15 (f27 f28 f20) ?v0) ?v0)))
(assert (forall ((?v0 S34)) (= (f50 (f56 f57 f83) ?v0) ?v0)))
(assert (forall ((?v0 S20)) (= (f37 (f38 f39 f84) ?v0) ?v0)))
(assert (forall ((?v0 S26)) (= (f45 (f46 f47 f85) ?v0) ?v0)))
(assert (forall ((?v0 S27)) (= (f42 (f48 f49 f86) ?v0) ?v0)))
(assert (forall ((?v0 S14)) (= (f34 (f40 f41 f87) ?v0) ?v0)))
(assert (forall ((?v0 S13)) (= (f31 (f32 f33 f88) ?v0) ?v0)))
(assert (forall ((?v0 S2)) (= (= f89 ?v0) (= ?v0 f89))))
(assert (forall ((?v0 S15)) (= (= f90 ?v0) (= ?v0 f90))))
(assert (forall ((?v0 S9)) (= (= f20 ?v0) (= ?v0 f20))))
(assert (forall ((?v0 S34)) (= (= f83 ?v0) (= ?v0 f83))))
(assert (forall ((?v0 S20)) (= (= f84 ?v0) (= ?v0 f84))))
(assert (forall ((?v0 S26)) (= (= f85 ?v0) (= ?v0 f85))))
(assert (forall ((?v0 S27)) (= (= f86 ?v0) (= ?v0 f86))))
(assert (forall ((?v0 S14)) (= (= f87 ?v0) (= ?v0 f87))))
(assert (forall ((?v0 S13)) (= (= f88 ?v0) (= ?v0 f88))))
(assert (forall ((?v0 S3)) (= (= f91 ?v0) (= ?v0 f91))))
(assert (forall ((?v0 S9)) (= (f15 (f27 f28 ?v0) f20) ?v0)))
(assert (forall ((?v0 S34)) (= (f50 (f56 f57 ?v0) f83) ?v0)))
(assert (forall ((?v0 S20)) (= (f37 (f38 f39 ?v0) f84) ?v0)))
(assert (forall ((?v0 S26)) (= (f45 (f46 f47 ?v0) f85) ?v0)))
(assert (forall ((?v0 S27)) (= (f42 (f48 f49 ?v0) f86) ?v0)))
(assert (forall ((?v0 S14)) (= (f34 (f40 f41 ?v0) f87) ?v0)))
(assert (forall ((?v0 S13)) (= (f31 (f32 f33 ?v0) f88) ?v0)))
(assert (forall ((?v0 S2)) (= (= (f7 f23 ?v0) f89) (= ?v0 f89))))
(assert (forall ((?v0 S3)) (= (= (f5 f6 ?v0) f89) (= ?v0 f91))))
(assert (= (f7 f23 f89) f89))
(assert (= (f5 f6 f91) f89))
(assert (forall ((?v0 S2)) (= (= (f4 (f7 f23 ?v0) f89) f1) (= ?v0 f89))))
(assert (forall ((?v0 S3)) (= (= (f4 (f5 f6 ?v0) f89) f1) (= ?v0 f91))))
(assert (forall ((?v0 S3) (?v1 S9)) (= (= (f15 (f16 f17 ?v0) ?v1) f20) (and (= ?v0 f91) (= ?v1 f20)))))
(assert (forall ((?v0 S2) (?v1 S13)) (= (= (f31 (f67 f68 ?v0) ?v1) f88) (and (= ?v0 f89) (= ?v1 f88)))))
(assert (forall ((?v0 S15) (?v1 S14)) (= (= (f34 (f79 f80 ?v0) ?v1) f87) (and (= ?v0 f90) (= ?v1 f87)))))
(assert (forall ((?v0 S9) (?v1 S27)) (= (= (f42 (f77 f78 ?v0) ?v1) f86) (and (= ?v0 f20) (= ?v1 f86)))))
(assert (forall ((?v0 S34) (?v1 S33)) (= (= (f53 (f73 f74 ?v0) ?v1) f92) (and (= ?v0 f83) (= ?v1 f92)))))
(assert (forall ((?v0 S20) (?v1 S52)) (= (= (f93 (f94 f95 ?v0) ?v1) f96) (and (= ?v0 f84) (= ?v1 f96)))))
(assert (forall ((?v0 S26) (?v1 S55)) (= (= (f97 (f98 f99 ?v0) ?v1) f100) (and (= ?v0 f85) (= ?v1 f100)))))
(assert (forall ((?v0 S27) (?v1 S26)) (= (= (f45 (f71 f72 ?v0) ?v1) f85) (and (= ?v0 f86) (= ?v1 f85)))))
(assert (forall ((?v0 S14) (?v1 S20)) (= (= (f37 (f69 f70 ?v0) ?v1) f84) (and (= ?v0 f87) (= ?v1 f84)))))
(assert (forall ((?v0 S13) (?v1 S34)) (= (= (f50 (f75 f76 ?v0) ?v1) f83) (and (= ?v0 f88) (= ?v1 f83)))))
(assert (= (f15 (f16 f17 f91) f20) f20))
(assert (= (f31 (f67 f68 f89) f88) f88))
(assert (= (f34 (f79 f80 f90) f87) f87))
(assert (= (f42 (f77 f78 f20) f86) f86))
(assert (= (f53 (f73 f74 f83) f92) f92))
(assert (= (f93 (f94 f95 f84) f96) f96))
(assert (= (f97 (f98 f99 f85) f100) f100))
(assert (= (f45 (f71 f72 f86) f85) f85))
(assert (= (f37 (f69 f70 f87) f84) f84))
(assert (= (f50 (f75 f76 f88) f83) f83))
(assert (forall ((?v0 S3)) (= (f12 (f13 f14 f20) ?v0) f91)))
(assert (forall ((?v0 S2)) (= (f7 (f29 f30 f88) ?v0) f89)))
(assert (forall ((?v0 S15)) (= (f62 (f63 f64 f87) ?v0) f90)))
(assert (forall ((?v0 S9)) (= (f15 (f60 f61 f86) ?v0) f20)))
(assert (forall ((?v0 S34)) (= (f50 (f51 f52 f92) ?v0) f83)))
(assert (forall ((?v0 S20)) (= (f37 (f101 f102 f96) ?v0) f84)))
(assert (forall ((?v0 S26)) (= (f45 (f103 f104 f100) ?v0) f85)))
(assert (forall ((?v0 S27)) (= (f42 (f43 f44 f85) ?v0) f86)))
(assert (forall ((?v0 S14)) (= (f34 (f35 f36 f84) ?v0) f87)))
(assert (forall ((?v0 S13)) (= (f31 (f58 f59 f83) ?v0) f88)))
(assert (forall ((?v0 S3)) (= (f12 (f21 f22 ?v0) f91) ?v0)))
(assert (forall ((?v0 S2)) (= (f7 (f8 f9 ?v0) f89) ?v0)))
(assert (forall ((?v0 S15)) (= (f62 (f65 f66 ?v0) f90) ?v0)))
(assert (forall ((?v0 S9)) (= (f15 (f27 f28 ?v0) f20) ?v0)))
(assert (forall ((?v0 S34)) (= (f50 (f56 f57 ?v0) f83) ?v0)))
(assert (forall ((?v0 S20)) (= (f37 (f38 f39 ?v0) f84) ?v0)))
(assert (forall ((?v0 S26)) (= (f45 (f46 f47 ?v0) f85) ?v0)))
(assert (forall ((?v0 S27)) (= (f42 (f48 f49 ?v0) f86) ?v0)))
(assert (forall ((?v0 S14)) (= (f34 (f40 f41 ?v0) f87) ?v0)))
(assert (forall ((?v0 S13)) (= (f31 (f32 f33 ?v0) f88) ?v0)))
(assert (forall ((?v0 S3)) (= (f12 (f21 f22 ?v0) f91) ?v0)))
(assert (forall ((?v0 S2)) (= (f7 (f8 f9 ?v0) f89) ?v0)))
(assert (forall ((?v0 S15)) (= (f62 (f65 f66 ?v0) f90) ?v0)))
(assert (forall ((?v0 S9)) (= (f15 (f27 f28 ?v0) f20) ?v0)))
(assert (forall ((?v0 S34)) (= (f50 (f56 f57 ?v0) f83) ?v0)))
(assert (forall ((?v0 S20)) (= (f37 (f38 f39 ?v0) f84) ?v0)))
(assert (forall ((?v0 S26)) (= (f45 (f46 f47 ?v0) f85) ?v0)))
(assert (forall ((?v0 S27)) (= (f42 (f48 f49 ?v0) f86) ?v0)))
(assert (forall ((?v0 S14)) (= (f34 (f40 f41 ?v0) f87) ?v0)))
(assert (forall ((?v0 S13)) (= (f31 (f32 f33 ?v0) f88) ?v0)))
(assert (forall ((?v0 S2)) (= (= f89 (f7 (f8 f9 ?v0) ?v0)) (= ?v0 f89))))
(assert (forall ((?v0 S15)) (= (= f90 (f62 (f65 f66 ?v0) ?v0)) (= ?v0 f90))))
(assert (forall ((?v0 S34)) (= (= f83 (f50 (f56 f57 ?v0) ?v0)) (= ?v0 f83))))
(assert (forall ((?v0 S20)) (= (= f84 (f37 (f38 f39 ?v0) ?v0)) (= ?v0 f84))))
(assert (forall ((?v0 S14)) (= (= f87 (f34 (f40 f41 ?v0) ?v0)) (= ?v0 f87))))
(assert (forall ((?v0 S13)) (= (= f88 (f31 (f32 f33 ?v0) ?v0)) (= ?v0 f88))))
(assert (forall ((?v0 S3)) (= (f12 (f21 f22 f91) ?v0) ?v0)))
(assert (forall ((?v0 S2)) (= (f7 (f8 f9 f89) ?v0) ?v0)))
(assert (forall ((?v0 S15)) (= (f62 (f65 f66 f90) ?v0) ?v0)))
(assert (forall ((?v0 S9)) (= (f15 (f27 f28 f20) ?v0) ?v0)))
(assert (forall ((?v0 S34)) (= (f50 (f56 f57 f83) ?v0) ?v0)))
(assert (forall ((?v0 S20)) (= (f37 (f38 f39 f84) ?v0) ?v0)))
(assert (forall ((?v0 S26)) (= (f45 (f46 f47 f85) ?v0) ?v0)))
(assert (forall ((?v0 S27)) (= (f42 (f48 f49 f86) ?v0) ?v0)))
(assert (forall ((?v0 S14)) (= (f34 (f40 f41 f87) ?v0) ?v0)))
(assert (forall ((?v0 S13)) (= (f31 (f32 f33 f88) ?v0) ?v0)))
(assert (forall ((?v0 S3)) (= (f12 (f21 f22 f91) ?v0) ?v0)))
(assert (forall ((?v0 S2)) (= (f7 (f8 f9 f89) ?v0) ?v0)))
(assert (forall ((?v0 S15)) (= (f62 (f65 f66 f90) ?v0) ?v0)))
(assert (forall ((?v0 S9)) (= (f15 (f27 f28 f20) ?v0) ?v0)))
(assert (forall ((?v0 S34)) (= (f50 (f56 f57 f83) ?v0) ?v0)))
(assert (forall ((?v0 S20)) (= (f37 (f38 f39 f84) ?v0) ?v0)))
(assert (forall ((?v0 S26)) (= (f45 (f46 f47 f85) ?v0) ?v0)))
(assert (forall ((?v0 S27)) (= (f42 (f48 f49 f86) ?v0) ?v0)))
(assert (forall ((?v0 S14)) (= (f34 (f40 f41 f87) ?v0) ?v0)))
(assert (forall ((?v0 S13)) (= (f31 (f32 f33 f88) ?v0) ?v0)))
(assert (forall ((?v0 S9)) (= (= (f13 f14 ?v0) (f13 f14 f20)) (= ?v0 f20))))
(assert (forall ((?v0 S34)) (= (= (f58 f59 ?v0) (f58 f59 f83)) (= ?v0 f83))))
(assert (forall ((?v0 S20)) (= (= (f35 f36 ?v0) (f35 f36 f84)) (= ?v0 f84))))
(assert (forall ((?v0 S14)) (= (= (f63 f64 ?v0) (f63 f64 f87)) (= ?v0 f87))))
(assert (forall ((?v0 S13)) (= (= (f29 f30 ?v0) (f29 f30 f88)) (= ?v0 f88))))
(assert (forall ((?v0 S2) (?v1 S2)) (=> (=> (= (f4 ?v0 ?v1) f1) false) (=> (=> (= (f4 ?v1 ?v0) f1) false) false))))
(assert (forall ((?v0 S13) (?v1 S13)) (=> (=> (= (f24 ?v0 ?v1) f1) false) (=> (=> (= (f24 ?v1 ?v0) f1) false) false))))
(assert (forall ((?v0 S14) (?v1 S14)) (=> (=> (= (f25 ?v0 ?v1) f1) false) (=> (=> (= (f25 ?v1 ?v0) f1) false) false))))
(assert (forall ((?v0 S15) (?v1 S15)) (=> (=> (= (f26 ?v0 ?v1) f1) false) (=> (=> (= (f26 ?v1 ?v0) f1) false) false))))
(assert (forall ((?v0 S2) (?v1 S2) (?v2 S2)) (=> (= (f4 ?v0 ?v1) f1) (=> (= (f4 ?v2 ?v0) f1) (= (f4 ?v2 ?v1) f1)))))
(assert (forall ((?v0 S13) (?v1 S13) (?v2 S13)) (=> (= (f24 ?v0 ?v1) f1) (=> (= (f24 ?v2 ?v0) f1) (= (f24 ?v2 ?v1) f1)))))
(assert (forall ((?v0 S14) (?v1 S14) (?v2 S14)) (=> (= (f25 ?v0 ?v1) f1) (=> (= (f25 ?v2 ?v0) f1) (= (f25 ?v2 ?v1) f1)))))
(assert (forall ((?v0 S15) (?v1 S15) (?v2 S15)) (=> (= (f26 ?v0 ?v1) f1) (=> (= (f26 ?v2 ?v0) f1) (= (f26 ?v2 ?v1) f1)))))
(assert (forall ((?v0 S2) (?v1 S2)) (=> (= (f4 ?v0 ?v1) f1) (=> (= (f4 ?v1 ?v0) f1) (= ?v1 ?v0)))))
(assert (forall ((?v0 S13) (?v1 S13)) (=> (= (f24 ?v0 ?v1) f1) (=> (= (f24 ?v1 ?v0) f1) (= ?v1 ?v0)))))
(assert (forall ((?v0 S14) (?v1 S14)) (=> (= (f25 ?v0 ?v1) f1) (=> (= (f25 ?v1 ?v0) f1) (= ?v1 ?v0)))))
(assert (forall ((?v0 S15) (?v1 S15)) (=> (= (f26 ?v0 ?v1) f1) (=> (= (f26 ?v1 ?v0) f1) (= ?v1 ?v0)))))
(assert (forall ((?v0 S2) (?v1 S2) (?v2 S2)) (=> (= (f4 ?v0 ?v1) f1) (=> (= (f4 ?v1 ?v2) f1) (= (f4 ?v0 ?v2) f1)))))
(assert (forall ((?v0 S13) (?v1 S13) (?v2 S13)) (=> (= (f24 ?v0 ?v1) f1) (=> (= (f24 ?v1 ?v2) f1) (= (f24 ?v0 ?v2) f1)))))
(assert (forall ((?v0 S14) (?v1 S14) (?v2 S14)) (=> (= (f25 ?v0 ?v1) f1) (=> (= (f25 ?v1 ?v2) f1) (= (f25 ?v0 ?v2) f1)))))
(assert (forall ((?v0 S15) (?v1 S15) (?v2 S15)) (=> (= (f26 ?v0 ?v1) f1) (=> (= (f26 ?v1 ?v2) f1) (= (f26 ?v0 ?v2) f1)))))
(assert (forall ((?v0 S2) (?v1 S2)) (=> (= (f4 ?v0 ?v1) f1) (=> (= (f4 ?v1 ?v0) f1) (= ?v0 ?v1)))))
(assert (forall ((?v0 S13) (?v1 S13)) (=> (= (f24 ?v0 ?v1) f1) (=> (= (f24 ?v1 ?v0) f1) (= ?v0 ?v1)))))
(assert (forall ((?v0 S14) (?v1 S14)) (=> (= (f25 ?v0 ?v1) f1) (=> (= (f25 ?v1 ?v0) f1) (= ?v0 ?v1)))))
(assert (forall ((?v0 S15) (?v1 S15)) (=> (= (f26 ?v0 ?v1) f1) (=> (= (f26 ?v1 ?v0) f1) (= ?v0 ?v1)))))
(assert (forall ((?v0 S2) (?v1 S2) (?v2 S2)) (=> (= (f4 ?v0 ?v1) f1) (=> (= ?v0 ?v2) (= (f4 ?v2 ?v1) f1)))))
(assert (forall ((?v0 S13) (?v1 S13) (?v2 S13)) (=> (= (f24 ?v0 ?v1) f1) (=> (= ?v0 ?v2) (= (f24 ?v2 ?v1) f1)))))
(assert (forall ((?v0 S14) (?v1 S14) (?v2 S14)) (=> (= (f25 ?v0 ?v1) f1) (=> (= ?v0 ?v2) (= (f25 ?v2 ?v1) f1)))))
(assert (forall ((?v0 S15) (?v1 S15) (?v2 S15)) (=> (= (f26 ?v0 ?v1) f1) (=> (= ?v0 ?v2) (= (f26 ?v2 ?v1) f1)))))
(assert (forall ((?v0 S2) (?v1 S2) (?v2 S2)) (=> (= (f4 ?v0 ?v1) f1) (=> (= ?v1 ?v2) (= (f4 ?v0 ?v2) f1)))))
(assert (forall ((?v0 S14) (?v1 S14) (?v2 S14)) (=> (= (f25 ?v0 ?v1) f1) (=> (= ?v1 ?v2) (= (f25 ?v0 ?v2) f1)))))
(assert (forall ((?v0 S15) (?v1 S15) (?v2 S15)) (=> (= (f26 ?v0 ?v1) f1) (=> (= ?v1 ?v2) (= (f26 ?v0 ?v2) f1)))))
(assert (forall ((?v0 S15) (?v1 S15) (?v2 S15)) (=> (= ?v0 ?v1) (=> (= (f26 ?v2 ?v1) f1) (= (f26 ?v2 ?v0) f1)))))
(assert (forall ((?v0 S2) (?v1 S2) (?v2 S2)) (=> (= ?v0 ?v1) (=> (= (f4 ?v2 ?v1) f1) (= (f4 ?v2 ?v0) f1)))))
(assert (forall ((?v0 S15) (?v1 S15) (?v2 S15)) (=> (= ?v0 ?v1) (=> (= (f26 ?v1 ?v2) f1) (= (f26 ?v0 ?v2) f1)))))
(assert (forall ((?v0 S2) (?v1 S2) (?v2 S2)) (=> (= ?v0 ?v1) (=> (= (f4 ?v1 ?v2) f1) (= (f4 ?v0 ?v2) f1)))))
(assert (forall ((?v0 S15) (?v1 S15)) (=> (= (f26 ?v0 ?v1) f1) (= (= (f26 ?v1 ?v0) f1) (= ?v1 ?v0)))))
(assert (forall ((?v0 S2) (?v1 S2)) (=> (= (f4 ?v0 ?v1) f1) (= (= (f4 ?v1 ?v0) f1) (= ?v1 ?v0)))))
(assert (forall ((?v0 S15) (?v1 S15)) (=> (= ?v0 ?v1) (= (f26 ?v0 ?v1) f1))))
(assert (forall ((?v0 S2) (?v1 S2)) (=> (= ?v0 ?v1) (= (f4 ?v0 ?v1) f1))))
(assert (forall ((?v0 S15) (?v1 S15)) (= (= ?v0 ?v1) (and (= (f26 ?v0 ?v1) f1) (= (f26 ?v1 ?v0) f1)))))
(assert (forall ((?v0 S2) (?v1 S2)) (= (= ?v0 ?v1) (and (= (f4 ?v0 ?v1) f1) (= (f4 ?v1 ?v0) f1)))))
(assert (forall ((?v0 S15) (?v1 S15)) (or (= (f26 ?v0 ?v1) f1) (= (f26 ?v1 ?v0) f1))))
(assert (forall ((?v0 S2) (?v1 S2)) (or (= (f4 ?v0 ?v1) f1) (= (f4 ?v1 ?v0) f1))))
(assert (forall ((?v0 S3) (?v1 S3)) (= (f4 (f5 f6 ?v0) (f7 (f8 f9 (f5 f6 (f12 (f21 f22 ?v0) ?v1))) (f5 f6 ?v1))) f1)))
(assert (forall ((?v0 S15) (?v1 S15) (?v2 S15)) (=> (= (f62 (f65 f66 ?v0) ?v1) (f62 (f65 f66 ?v2) ?v1)) (= ?v0 ?v2))))
(assert (forall ((?v0 S9) (?v1 S9) (?v2 S9)) (=> (= (f15 (f27 f28 ?v0) ?v1) (f15 (f27 f28 ?v2) ?v1)) (= ?v0 ?v2))))
(assert (forall ((?v0 S13) (?v1 S13) (?v2 S13)) (=> (= (f31 (f32 f33 ?v0) ?v1) (f31 (f32 f33 ?v2) ?v1)) (= ?v0 ?v2))))
(assert (forall ((?v0 S2) (?v1 S2) (?v2 S2)) (=> (= (f7 (f8 f9 ?v0) ?v1) (f7 (f8 f9 ?v2) ?v1)) (= ?v0 ?v2))))
(assert (forall ((?v0 S3) (?v1 S3) (?v2 S3)) (=> (= (f12 (f21 f22 ?v0) ?v1) (f12 (f21 f22 ?v2) ?v1)) (= ?v0 ?v2))))
(assert (forall ((?v0 S15) (?v1 S15) (?v2 S15)) (let ((?v_0 (f65 f66 ?v0))) (=> (= (f62 ?v_0 ?v1) (f62 ?v_0 ?v2)) (= ?v1 ?v2)))))
(assert (forall ((?v0 S9) (?v1 S9) (?v2 S9)) (let ((?v_0 (f27 f28 ?v0))) (=> (= (f15 ?v_0 ?v1) (f15 ?v_0 ?v2)) (= ?v1 ?v2)))))
(assert (forall ((?v0 S13) (?v1 S13) (?v2 S13)) (let ((?v_0 (f32 f33 ?v0))) (=> (= (f31 ?v_0 ?v1) (f31 ?v_0 ?v2)) (= ?v1 ?v2)))))
(assert (forall ((?v0 S2) (?v1 S2) (?v2 S2)) (let ((?v_0 (f8 f9 ?v0))) (=> (= (f7 ?v_0 ?v1) (f7 ?v_0 ?v2)) (= ?v1 ?v2)))))
(assert (forall ((?v0 S3) (?v1 S3) (?v2 S3)) (let ((?v_0 (f21 f22 ?v0))) (=> (= (f12 ?v_0 ?v1) (f12 ?v_0 ?v2)) (= ?v1 ?v2)))))
(assert (forall ((?v0 S15) (?v1 S15) (?v2 S15)) (let ((?v_0 (f65 f66 ?v0))) (=> (= (f62 ?v_0 ?v1) (f62 ?v_0 ?v2)) (= ?v1 ?v2)))))
(assert (forall ((?v0 S9) (?v1 S9) (?v2 S9)) (let ((?v_0 (f27 f28 ?v0))) (=> (= (f15 ?v_0 ?v1) (f15 ?v_0 ?v2)) (= ?v1 ?v2)))))
(assert (forall ((?v0 S13) (?v1 S13) (?v2 S13)) (let ((?v_0 (f32 f33 ?v0))) (=> (= (f31 ?v_0 ?v1) (f31 ?v_0 ?v2)) (= ?v1 ?v2)))))
(assert (forall ((?v0 S2) (?v1 S2) (?v2 S2)) (let ((?v_0 (f8 f9 ?v0))) (=> (= (f7 ?v_0 ?v1) (f7 ?v_0 ?v2)) (= ?v1 ?v2)))))
(assert (forall ((?v0 S3) (?v1 S3) (?v2 S3)) (let ((?v_0 (f21 f22 ?v0))) (=> (= (f12 ?v_0 ?v1) (f12 ?v_0 ?v2)) (= ?v1 ?v2)))))
(assert (forall ((?v0 S15) (?v1 S15) (?v2 S15)) (= (= (f62 (f65 f66 ?v0) ?v1) (f62 (f65 f66 ?v2) ?v1)) (= ?v0 ?v2))))
(assert (forall ((?v0 S9) (?v1 S9) (?v2 S9)) (= (= (f15 (f27 f28 ?v0) ?v1) (f15 (f27 f28 ?v2) ?v1)) (= ?v0 ?v2))))
(assert (forall ((?v0 S13) (?v1 S13) (?v2 S13)) (= (= (f31 (f32 f33 ?v0) ?v1) (f31 (f32 f33 ?v2) ?v1)) (= ?v0 ?v2))))
(assert (forall ((?v0 S2) (?v1 S2) (?v2 S2)) (= (= (f7 (f8 f9 ?v0) ?v1) (f7 (f8 f9 ?v2) ?v1)) (= ?v0 ?v2))))
(assert (forall ((?v0 S3) (?v1 S3) (?v2 S3)) (= (= (f12 (f21 f22 ?v0) ?v1) (f12 (f21 f22 ?v2) ?v1)) (= ?v0 ?v2))))
(assert (forall ((?v0 S15) (?v1 S15) (?v2 S15)) (let ((?v_0 (f65 f66 ?v0))) (= (= (f62 ?v_0 ?v1) (f62 ?v_0 ?v2)) (= ?v1 ?v2)))))
(assert (forall ((?v0 S9) (?v1 S9) (?v2 S9)) (let ((?v_0 (f27 f28 ?v0))) (= (= (f15 ?v_0 ?v1) (f15 ?v_0 ?v2)) (= ?v1 ?v2)))))
(assert (forall ((?v0 S13) (?v1 S13) (?v2 S13)) (let ((?v_0 (f32 f33 ?v0))) (= (= (f31 ?v_0 ?v1) (f31 ?v_0 ?v2)) (= ?v1 ?v2)))))
(assert (forall ((?v0 S2) (?v1 S2) (?v2 S2)) (let ((?v_0 (f8 f9 ?v0))) (= (= (f7 ?v_0 ?v1) (f7 ?v_0 ?v2)) (= ?v1 ?v2)))))
(assert (forall ((?v0 S3) (?v1 S3) (?v2 S3)) (let ((?v_0 (f21 f22 ?v0))) (= (= (f12 ?v_0 ?v1) (f12 ?v_0 ?v2)) (= ?v1 ?v2)))))
(assert (forall ((?v0 S15) (?v1 S15) (?v2 S15)) (let ((?v_0 (f65 f66 ?v0))) (= (f62 (f65 f66 (f62 ?v_0 ?v1)) ?v2) (f62 ?v_0 (f62 (f65 f66 ?v1) ?v2))))))
(assert (forall ((?v0 S9) (?v1 S9) (?v2 S9)) (let ((?v_0 (f27 f28 ?v0))) (= (f15 (f27 f28 (f15 ?v_0 ?v1)) ?v2) (f15 ?v_0 (f15 (f27 f28 ?v1) ?v2))))))
(assert (forall ((?v0 S13) (?v1 S13) (?v2 S13)) (let ((?v_0 (f32 f33 ?v0))) (= (f31 (f32 f33 (f31 ?v_0 ?v1)) ?v2) (f31 ?v_0 (f31 (f32 f33 ?v1) ?v2))))))
(assert (forall ((?v0 S2) (?v1 S2) (?v2 S2)) (let ((?v_0 (f8 f9 ?v0))) (= (f7 (f8 f9 (f7 ?v_0 ?v1)) ?v2) (f7 ?v_0 (f7 (f8 f9 ?v1) ?v2))))))
(assert (forall ((?v0 S3) (?v1 S3) (?v2 S3)) (let ((?v_0 (f21 f22 ?v0))) (= (f12 (f21 f22 (f12 ?v_0 ?v1)) ?v2) (f12 ?v_0 (f12 (f21 f22 ?v1) ?v2))))))
(assert (forall ((?v0 S2) (?v1 S2)) (=> (= (f4 ?v0 ?v1) f1) (=> (= (f4 ?v1 ?v0) f1) (= ?v0 ?v1)))))
(assert (forall ((?v0 S2) (?v1 S2) (?v2 S2)) (=> (= (f4 ?v0 ?v1) f1) (=> (= (f4 ?v1 ?v2) f1) (= (f4 ?v0 ?v2) f1)))))
(assert (forall ((?v0 S2) (?v1 S2)) (or (= (f4 ?v0 ?v1) f1) (= (f4 ?v1 ?v0) f1))))
(assert (forall ((?v0 S2)) (= (f4 ?v0 ?v0) f1)))
(assert (forall ((?v0 S13) (?v1 S13)) (=> (= (f24 ?v0 f88) f1) (=> (= (f24 ?v1 f88) f1) (= (f24 (f31 (f32 f33 ?v0) ?v1) f88) f1)))))
(assert (forall ((?v0 S14) (?v1 S14)) (=> (= (f25 ?v0 f87) f1) (=> (= (f25 ?v1 f87) f1) (= (f25 (f34 (f40 f41 ?v0) ?v1) f87) f1)))))
(assert (forall ((?v0 S15) (?v1 S15)) (=> (= (f26 ?v0 f90) f1) (=> (= (f26 ?v1 f90) f1) (= (f26 (f62 (f65 f66 ?v0) ?v1) f90) f1)))))
(assert (forall ((?v0 S2) (?v1 S2)) (=> (= (f4 ?v0 f89) f1) (=> (= (f4 ?v1 f89) f1) (= (f4 (f7 (f8 f9 ?v0) ?v1) f89) f1)))))
(assert (forall ((?v0 S13) (?v1 S13) (?v2 S13)) (=> (= (f24 f88 ?v0) f1) (=> (= (f24 ?v1 ?v2) f1) (= (f24 ?v1 (f31 (f32 f33 ?v2) ?v0)) f1)))))
(assert (forall ((?v0 S14) (?v1 S14) (?v2 S14)) (=> (= (f25 f87 ?v0) f1) (=> (= (f25 ?v1 ?v2) f1) (= (f25 ?v1 (f34 (f40 f41 ?v2) ?v0)) f1)))))
(assert (forall ((?v0 S15) (?v1 S15) (?v2 S15)) (=> (= (f26 f90 ?v0) f1) (=> (= (f26 ?v1 ?v2) f1) (= (f26 ?v1 (f62 (f65 f66 ?v2) ?v0)) f1)))))
(assert (forall ((?v0 S2) (?v1 S2) (?v2 S2)) (=> (= (f4 f89 ?v0) f1) (=> (= (f4 ?v1 ?v2) f1) (= (f4 ?v1 (f7 (f8 f9 ?v2) ?v0)) f1)))))
(assert (forall ((?v0 S13) (?v1 S13) (?v2 S13)) (=> (= (f24 f88 ?v0) f1) (=> (= (f24 ?v1 ?v2) f1) (= (f24 ?v1 (f31 (f32 f33 ?v0) ?v2)) f1)))))
(assert (forall ((?v0 S14) (?v1 S14) (?v2 S14)) (=> (= (f25 f87 ?v0) f1) (=> (= (f25 ?v1 ?v2) f1) (= (f25 ?v1 (f34 (f40 f41 ?v0) ?v2)) f1)))))
(assert (forall ((?v0 S15) (?v1 S15) (?v2 S15)) (=> (= (f26 f90 ?v0) f1) (=> (= (f26 ?v1 ?v2) f1) (= (f26 ?v1 (f62 (f65 f66 ?v0) ?v2)) f1)))))
(assert (forall ((?v0 S2) (?v1 S2) (?v2 S2)) (=> (= (f4 f89 ?v0) f1) (=> (= (f4 ?v1 ?v2) f1) (= (f4 ?v1 (f7 (f8 f9 ?v0) ?v2)) f1)))))
(assert (forall ((?v0 S13) (?v1 S13)) (=> (= (f24 f88 ?v0) f1) (=> (= (f24 f88 ?v1) f1) (= (= (f31 (f32 f33 ?v0) ?v1) f88) (and (= ?v0 f88) (= ?v1 f88)))))))
(assert (forall ((?v0 S14) (?v1 S14)) (=> (= (f25 f87 ?v0) f1) (=> (= (f25 f87 ?v1) f1) (= (= (f34 (f40 f41 ?v0) ?v1) f87) (and (= ?v0 f87) (= ?v1 f87)))))))
(assert (forall ((?v0 S15) (?v1 S15)) (=> (= (f26 f90 ?v0) f1) (=> (= (f26 f90 ?v1) f1) (= (= (f62 (f65 f66 ?v0) ?v1) f90) (and (= ?v0 f90) (= ?v1 f90)))))))
(assert (forall ((?v0 S2) (?v1 S2)) (=> (= (f4 f89 ?v0) f1) (=> (= (f4 f89 ?v1) f1) (= (= (f7 (f8 f9 ?v0) ?v1) f89) (and (= ?v0 f89) (= ?v1 f89)))))))
(assert (forall ((?v0 S13) (?v1 S13)) (=> (= (f24 f88 ?v0) f1) (=> (= (f24 f88 ?v1) f1) (= (f24 f88 (f31 (f32 f33 ?v0) ?v1)) f1)))))
(assert (forall ((?v0 S14) (?v1 S14)) (=> (= (f25 f87 ?v0) f1) (=> (= (f25 f87 ?v1) f1) (= (f25 f87 (f34 (f40 f41 ?v0) ?v1)) f1)))))
(assert (forall ((?v0 S15) (?v1 S15)) (=> (= (f26 f90 ?v0) f1) (=> (= (f26 f90 ?v1) f1) (= (f26 f90 (f62 (f65 f66 ?v0) ?v1)) f1)))))
(assert (forall ((?v0 S2) (?v1 S2)) (=> (= (f4 f89 ?v0) f1) (=> (= (f4 f89 ?v1) f1) (= (f4 f89 (f7 (f8 f9 ?v0) ?v1)) f1)))))
(check-sat)
(exit)
